NAME : XML100_3276_01
DIMENSION : 101
NB_CLUSTERS : 3
CLUSTERING_ALG : KMeans
CLUSTERING_PARAMS : k(2)
CLUSTERS
1 0
2 1 5 6 7 8 9 11 12 13 14 15 16 18 19 20 21 22 24 25 26 27 29 30 33 34 35 37 39 41 42 44 45 48 51 52 53 54 55 56 57 58 59 64 65 67 68 69 71 72 73 76 77 78 79 80 81 82 83 84 87 91 93 95 96 99 100
3 2 3 4 10 17 23 28 31 32 36 38 40 43 46 47 49 50 60 61 62 63 66 70 74 75 85 86 88 89 90 92 94 97 98
EOF